#######################################
### Exact MIP solver for the HHCRSP ###
#######################################
-- Instance file: new-instances/HHCRSP_300_60_28_0.4_C_C.txt
-- Max threads: 4
-- Time limit: 999999 seconds
-- Use initial solution: No
Trivial flow violations prevented generating 1157483 variables.
Version identifier: 20.1.0.0 | 2020-11-10 | 9bedb6d68
CPXPARAM_Threads                                 4
CPXPARAM_TimeLimit                               999999
Parallel mode: deterministic, using up to 4 threads for concurrent optimization:
 * Starting dual Simplex on 1 thread...
 * Starting Barrier on 3 threads...
Tried aggregator 1 time.
LP Presolve eliminated 43392 rows and 8921 columns.
Reduced LP has 1105184 rows, 1051521 columns, and 23662490 nonzeros.
Presolve time = 28.66 sec. (5261.65 ticks)
Symmetry aggregator did 1740020 additional substitutions.

Iteration log . . .
Iteration:     1   Dual objective     =             0.000000

Dual crossover.
  Dual:  Fixing 1655 variables.
     1654 DMoves:  Infeasibility  1.29901645e-12  Objective  3.59000000e+02
        0 DMoves:  Infeasibility  4.48918680e-13  Objective  3.59000000e+02
  Dual:  Pushed 57, exchanged 1598.
  Primal:  Fixing 987 variables.
      986 PMoves:  Infeasibility  2.77555756e-17  Objective  3.59000000e+02
        0 PMoves:  Infeasibility  3.33066907e-16  Objective  3.59000000e+02
  Primal:  Pushed 842, exchanged 145.

Dual simplex solved model.


Solution status from MIP model:
-- Processing time: 49.346 sec.
-- Memory used: 979.462 MB
-- Best bound: inf
-- Obj value: 359
-- Gap: inf%
-- Total distance: 1077
-- Total tardiness: 0
-- Largest tardiness: 0
